12 40 9 10
20 15 5 13 20 8 17 13 19 18 3 3 8 7 1 5 15 17 10 18 8 13 9 20 12 7 7 20 1 9 7 2 17 8 11 9 3 12 8 14 
15.86 3.8 14.26 13.39 14.83 0.7 6.91 10.34 3 2.48 13.72 6.37 0.59 5.37 1.36 13.04 3.23 1.1 4.78 13.67 5.94 6.02 1.21 10.54 8.74 2.67 7.52 9.42 2.26 3.22 3.9 2.91 11.15 2.06 11.2 3.78 4.9 11.58 1.36 10.22 
2.75 15.21 0.14 8.77 4.27 11.45 6.79 12.45 8.78 9.5 10.33 3.81 5.91 8.52 14.55 5.21 2.29 0.31 6.54 8.74 6.93 14.67 12.64 9.99 13.32 3.17 13.59 2.79 14.56 7.86 14.97 1.9 15.15 15.55 11.39 11.88 14.81 10.64 15.68 2.77 
4.04 15.72 7.43 3.48 8.66 7.89 12.02 9.9 6.78 1.55 0.7 11.94 9.62 12.6 13.52 6.43 0.64 15.03 9.42 14.93 10.16 8.34 6.41 0.16 15.57 13.75 15.68 13.18 13.66 12.67 13.87 13.92 5.56 4.34 0.43 1.67 5.35 2.32 1.27 13.19 
11.47 6.35 13.24 11.41 15.54 11.46 12.19 9.58 0.12 8.16 1.91 9.12 15.6 12.24 0.66 5.88 13.69 3.73 12.25 13.7 2.12 9.25 2.55 9.44 14.99 6.71 14.93 1.98 4.35 11.97 9.09 14.48 15.1 15.09 6.41 14.67 15.16 14.04 12.05 2.55 
1.78 4.16 8.6 9.83 4.12 7.93 6.55 0.15 13.9 6.33 6.64 11.88 11.67 6.08 4.19 12.6 2.29 2.44 8.67 11.79 12.61 15.79 1.05 12.58 2.74 8.66 12.46 9.76 8.08 5.03 10.79 14.11 13.32 0.02 2.33 5.4 2.91 12.87 2.32 15.46 
11.62 2.88 10.98 11.69 0.01 4.8 12.36 12.04 7.17 15.4 14.46 5.97 1.51 15.42 12.86 1.42 6.84 12.05 3.52 7.06 15.84 2.95 3.93 9.43 6.65 0.16 6.58 13.48 8.56 7.4 3.11 0.63 1.18 13.32 15.05 8.92 11.38 13.44 3.78 14.89 
3.07 14.02 14.9 13.07 6.3 15.85 1.72 7.1 11.65 1.7 9.59 6.32 1.41 12.2 11.69 6.6 14.04 11.17 0.75 14.21 13.51 12.47 13.77 5.38 0.19 13.33 5.49 15.37 11.91 4.9 1.66 14.08 8.23 5.5 14.82 8.22 4.17 1.93 6.68 6.08 
13.09 0.73 8.03 11.32 1.33 13.39 9.48 1.58 7.68 7.64 14.15 10.52 10.58 2.06 1.76 1.21 14.85 6.01 11.05 5.12 8.03 1.45 5.41 6.48 8.11 15.12 2.02 7.5 12.97 0.96 8.36 14.97 6.66 6.06 6.98 10.73 7.68 5.35 9.41 8.67 
15.72 0.32 8.51 9.1 3.91 15.84 13.35 8.67 4.28 7.78 11.05 4.45 12.18 10.8 1.77 11.84 3.08 14.25 14.67 1.44 10.92 12.42 6.85 3.4 14.24 8.88 10.2 4.61 3.44 0.98 0.24 5.74 12.46 12.82 4.71 3.09 3 14.98 1.68 5.36 
8 8 8 8 8 8 8 8 8 8 8 8 8 8 8 8 8 8 8 8 8 8 8 8 8 8 8 8 8 8 8 8 8 8 8 8 8 8 8 8 
0.24 3.64 2.95 4.69 7.47 3.24 15.97 0.36 5.82 9.47 14.44 5.92 9.08 6.91 4.3 14.83 9.62 12.29 9.18 13.2 13.05 5.22 12.46 12.69 8.36 5.78 3.67 1.94 3.05 7.76 8.53 12.04 7.23 9.94 7.39 14.79 8.88 12.39 12.21 1.68 
6.96 9 5.93 4.26 0.51 3.55 0.42 5.82 11.78 0.81 3.82 15.95 6.74 2.66 4.36 7.27 8.7 4.46 13.89 2.06 2.51 9.6 0.77 12.97 12.43 0.85 14.49 8.16 3.77 11.81 0.9 4.28 15.34 14.04 11.32 2.04 14.63 4.62 15.94 6.83 
1 1 1 1 1 1 1 1 1 1 1 1 1 1 1 1 1 1 1 1 1 1 1 1 1 1 1 1 1 1 1 1 1 1 1 1 1 1 1 1 
1 1 1 1 1 1 1 1 1 1 1 1 1 1 1 1 1 1 1 1 1 1 1 1 1 1 1 1 1 1 1 1 1 1 1 1 1 1 1 1 
1 1 1 1 1 1 1 1 1 1 1 1 1 1 1 1 1 1 1 1 1 1 1 1 1 1 1 1 1 1 1 1 1 1 1 1 1 1 1 1 
1 1 1 1 1 1 1 1 1 1 1 1 1 1 1 1 1 1 1 1 1 1 1 1 1 1 1 1 1 1 1 1 1 1 1 1 1 1 1 1 
1 1 1 1 1 1 1 1 1 1 1 1 1 1 1 1 1 1 1 1 1 1 1 1 1 1 1 1 1 1 1 1 1 1 1 1 1 1 1 1 
1 1 1 1 1 1 1 1 1 1 1 1 1 1 1 1 1 1 1 1 1 1 1 1 1 1 1 1 1 1 1 1 1 1 1 1 1 1 1 1 
1 1 1 1 1 1 1 1 1 1 1 1 1 1 1 1 1 1 1 1 1 1 1 1 1 1 1 1 1 1 1 1 1 1 1 1 1 1 1 1 
1 1 1 1 1 1 1 1 1 1 1 1 1 1 1 1 1 1 1 1 1 1 1 1 1 1 1 1 1 1 1 1 1 1 1 1 1 1 1 1 
1 1 1 1 1 1 1 1 1 1 1 1 1 1 1 1 1 1 1 1 1 1 1 1 1 1 1 1 1 1 1 1 1 1 1 1 1 1 1 1 
1 1 1 1 1 1 1 1 1 1 1 1 1 1 1 1 1 1 1 1 1 1 1 1 1 1 1 1 1 1 1 1 1 1 1 1 1 1 1 1 
1 1 1 1 1 1 1 1 1 1 1 1 1 1 1 1 1 1 1 1 1 1 1 1 1 1 1 1 1 1 1 1 1 1 1 1 1 1 1 1 
1 1 1 1 1 1 1 1 1 1 1 1 1 1 1 1 1 1 1 1 1 1 1 1 1 1 1 1 1 1 1 1 1 1 1 1 1 1 1 1 
0.01 0.01 0.01 0.01 0.01 0.01 0.01 0.01 0.01 0.01 0.01 0.01 0.01 0.01 0.01 0.01 0.01 0.01 0.01 0.01 0.01 0.01 0.01 0.01 0.01 0.01 0.01 0.01 0.01 0.01 0.01 0.01 0.01 0.01 0.01 0.01 0.01 0.01 0.01 0.01 
0.02 0.02 0.02 0.02 0.02 0.02 0.02 0.02 0.02 0.02 0.02 0.02 0.02 0.02 0.02 0.02 0.02 0.02 0.02 0.02 0.02 0.02 0.02 0.02 0.02 0.02 0.02 0.02 0.02 0.02 0.02 0.02 0.02 0.02 0.02 0.02 0.02 0.02 0.02 0.02 
0.03 0.03 0.03 0.03 0.03 0.03 0.03 0.03 0.03 0.03 0.03 0.03 0.03 0.03 0.03 0.03 0.03 0.03 0.03 0.03 0.03 0.03 0.03 0.03 0.03 0.03 0.03 0.03 0.03 0.03 0.03 0.03 0.03 0.03 0.03 0.03 0.03 0.03 0.03 0.03 
0.04 0.04 0.04 0.04 0.04 0.04 0.04 0.04 0.04 0.04 0.04 0.04 0.04 0.04 0.04 0.04 0.04 0.04 0.04 0.04 0.04 0.04 0.04 0.04 0.04 0.04 0.04 0.04 0.04 0.04 0.04 0.04 0.04 0.04 0.04 0.04 0.04 0.04 0.04 0.04 
0.05 0.05 0.05 0.05 0.05 0.05 0.05 0.05 0.05 0.05 0.05 0.05 0.05 0.05 0.05 0.05 0.05 0.05 0.05 0.05 0.05 0.05 0.05 0.05 0.05 0.05 0.05 0.05 0.05 0.05 0.05 0.05 0.05 0.05 0.05 0.05 0.05 0.05 0.05 0.05 
0.06 0.06 0.06 0.06 0.06 0.06 0.06 0.06 0.06 0.06 0.06 0.06 0.06 0.06 0.06 0.06 0.06 0.06 0.06 0.06 0.06 0.06 0.06 0.06 0.06 0.06 0.06 0.06 0.06 0.06 0.06 0.06 0.06 0.06 0.06 0.06 0.06 0.06 0.06 0.06 
0.07 0.07 0.07 0.07 0.07 0.07 0.07 0.07 0.07 0.07 0.07 0.07 0.07 0.07 0.07 0.07 0.07 0.07 0.07 0.07 0.07 0.07 0.07 0.07 0.07 0.07 0.07 0.07 0.07 0.07 0.07 0.07 0.07 0.07 0.07 0.07 0.07 0.07 0.07 0.07 
0.08 0.08 0.08 0.08 0.08 0.08 0.08 0.08 0.08 0.08 0.08 0.08 0.08 0.08 0.08 0.08 0.08 0.08 0.08 0.08 0.08 0.08 0.08 0.08 0.08 0.08 0.08 0.08 0.08 0.08 0.08 0.08 0.08 0.08 0.08 0.08 0.08 0.08 0.08 0.08 
0.09 0.09 0.09 0.09 0.09 0.09 0.09 0.09 0.09 0.09 0.09 0.09 0.09 0.09 0.09 0.09 0.09 0.09 0.09 0.09 0.09 0.09 0.09 0.09 0.09 0.09 0.09 0.09 0.09 0.09 0.09 0.09 0.09 0.09 0.09 0.09 0.09 0.09 0.09 0.09 
0.1 0.1 0.1 0.1 0.1 0.1 0.1 0.1 0.1 0.1 0.1 0.1 0.1 0.1 0.1 0.1 0.1 0.1 0.1 0.1 0.1 0.1 0.1 0.1 0.1 0.1 0.1 0.1 0.1 0.1 0.1 0.1 0.1 0.1 0.1 0.1 0.1 0.1 0.1 0.1 
0.5 0.5 0.5 0.5 0.5 0.5 0.5 0.5 0.5 0.5 0.5 0.5 0.5 0.5 0.5 0.5 0.5 0.5 0.5 0.5 0.5 0.5 0.5 0.5 0.5 0.5 0.5 0.5 0.5 0.5 0.5 0.5 0.5 0.5 0.5 0.5 0.5 0.5 0.5 0.5 
1 1 1 1 1 1 1 1 1 1 1 1 1 1 1 1 1 1 1 1 1 1 1 1 1 1 1 1 1 1 1 1 1 1 1 1 1 1 1 1 
